(declare-fun temp51644_1 () (_ BitVec 64))
(declare-fun temp51644_2 () (_ BitVec 64))
(declare-fun var77740 () (_ BitVec 64))
(declare-fun k!0 () Bool)
(declare-fun ARGNAME_input_1_NAMEEND_DIM () (_ BitVec 64))
(declare-fun ARGNAME_data_format_NAMEEND_STRFMT () (_ BitVec 64))
(declare-fun temp51644_3 () (_ BitVec 64))
(declare-fun ARGNAME_input_2_NAMEEND_DIM () (_ BitVec 64))
(declare-fun var77770 () (_ BitVec 64))
(declare-fun temp51644_4 () (_ BitVec 64))
(declare-fun temp51644_5 () (_ BitVec 64))
(declare-fun ARGNAME_input_1_NAMEEND_DIMSIZE
             ()
             (Array (_ BitVec 64) (_ BitVec 64)))
(declare-fun temp51644_6 () (_ BitVec 64))
(declare-fun temp51644_7 () (_ BitVec 64))
(declare-fun temp51644_8 () (_ BitVec 64))
(declare-fun temp51644_9 () (_ BitVec 64))
(declare-fun temp51644_10 () (_ BitVec 64))
(declare-fun temp51644_11 () (_ BitVec 64))
(declare-fun temp51644_12 () (_ BitVec 64))
(declare-fun temp51644_13 () (_ BitVec 64))
(declare-fun temp51644_14 () (_ BitVec 64))
(declare-fun temp51644_15 () (_ BitVec 64))
(declare-fun temp51644_16 () (_ BitVec 64))
(declare-fun temp51644_17 () (_ BitVec 64))
(declare-fun temp51644_18 () (_ BitVec 64))
(declare-fun var77799 () (_ BitVec 64))
(declare-fun temp51644_19 () (_ BitVec 64))
(declare-fun ARGNAME_input_2_NAMEEND_DIMSIZE
             ()
             (Array (_ BitVec 64) (_ BitVec 64)))
(declare-fun temp51644_20 () (_ BitVec 64))
(declare-fun temp51644_21 () (_ BitVec 64))
(declare-fun temp51644_22 () (_ BitVec 64))
(declare-fun temp51644_23 () (_ BitVec 64))
(declare-fun temp51644_24 () (_ BitVec 64))
(declare-fun temp51644_25 () (_ BitVec 64))
(declare-fun temp51644_26 () (_ BitVec 64))
(declare-fun temp51644_27 () (_ BitVec 64))
(declare-fun temp51644_28 () (_ BitVec 64))
(declare-fun temp51644_29 () (_ BitVec 64))
(declare-fun temp51644_30 () (_ BitVec 64))
(declare-fun temp51644_31 () (_ BitVec 64))
(declare-fun temp51644_32 () (_ BitVec 64))
(declare-fun var77832 () (_ BitVec 64))
(declare-fun temp51644_33 () (_ BitVec 64))
(declare-fun temp51644_34 () (_ BitVec 64))
(declare-fun var77833 () (_ BitVec 64))
(declare-fun var77834 () (_ BitVec 64))
(declare-fun temp51644_35 () (_ BitVec 64))
(declare-fun temp51644_36 () (_ BitVec 64))
(declare-fun var275510 () (_ BitVec 64))
(declare-fun temp51644_37 () (_ BitVec 64))
(declare-fun var275528 () (_ BitVec 64))
(declare-fun temp51644_38 () (_ BitVec 64))
(declare-fun temp51644_40 () (_ BitVec 64))
(declare-fun temp51644_39 () (_ BitVec 64))
(declare-fun temp51644_42 () (_ BitVec 64))
(declare-fun temp51644_41 () (_ BitVec 64))
(declare-fun temp51644_43 () (_ BitVec 64))
(declare-fun var406582 () (_ BitVec 64))
(declare-fun temp51644_44 () (_ BitVec 64))
(declare-fun var406600 () (_ BitVec 64))
(declare-fun temp51644_45 () (_ BitVec 64))
(declare-fun temp51644_47 () (_ BitVec 64))
(declare-fun temp51644_46 () (_ BitVec 64))
(declare-fun temp51644_48 () (_ BitVec 64))
(declare-fun var603190 () (_ BitVec 64))
(declare-fun temp51644_49 () (_ BitVec 64))
(declare-fun var603208 () (_ BitVec 64))
(declare-fun temp51644_50 () (_ BitVec 64))
(declare-fun temp51644_52 () (_ BitVec 64))
(declare-fun temp51644_51 () (_ BitVec 64))
(declare-fun temp51644_54 () (_ BitVec 64))
(declare-fun temp51644_53 () (_ BitVec 64))
(declare-fun temp51644_56 () (_ BitVec 64))
(declare-fun temp51644_55 () (_ BitVec 64))
(declare-fun temp51644_58 () (_ BitVec 64))
(declare-fun temp51644_57 () (_ BitVec 64))
(declare-fun temp51644_59 () (_ BitVec 64))
(declare-fun var861259 () (_ BitVec 64))
(declare-fun var861238 () (_ BitVec 64))
(declare-fun var795670 () (_ BitVec 64))
(declare-fun temp51644_60 () (_ BitVec 64))
(declare-fun temp51644_61 () (_ BitVec 64))
(declare-fun var992331 () (_ BitVec 64))
(declare-fun var992310 () (_ BitVec 64))
(declare-fun var795683 () (_ BitVec 64))
(declare-fun temp51644_62 () (_ BitVec 64))
(declare-fun temp51644_63 () (_ BitVec 64))
(declare-fun var1188914 () (_ BitVec 64))
(declare-fun temp51644_64 () (_ BitVec 64))
(declare-fun var1254450 () (_ BitVec 64))
(declare-fun temp51644_65 () (_ BitVec 64))
(declare-fun var1319986 () (_ BitVec 64))
(declare-fun temp51644_66 () (_ BitVec 64))
(declare-fun var78184 () (_ BitVec 64))
(assert (or (= ARGNAME_data_format_NAMEEND_STRFMT #x0000000000000000)
    (= ARGNAME_data_format_NAMEEND_STRFMT #x0000000000000001)
    (= ARGNAME_data_format_NAMEEND_STRFMT #x0000000000000002)
    (= ARGNAME_data_format_NAMEEND_STRFMT #x0000000000000003)
    (= ARGNAME_data_format_NAMEEND_STRFMT #x0000000000000004)
    (= ARGNAME_data_format_NAMEEND_STRFMT #x0000000000000005)))
(assert (= temp51644_1 #x0000000000000005))
(assert (= var77740
   (ite (= ARGNAME_input_1_NAMEEND_DIM temp51644_1)
        #x0000000000000001
        #x0000000000000000)))
(assert (= temp51644_2 #x0000000000000001))
(assert (= var77740 temp51644_2))
(assert (= temp51644_3 #x0000000000000005))
(assert (= var77770
   (ite (= ARGNAME_input_2_NAMEEND_DIM temp51644_3)
        #x0000000000000001
        #x0000000000000000)))
(assert (= temp51644_4 #x0000000000000001))
(assert (= var77770 temp51644_4))
(assert (= temp51644_5 #x0000000000000000))
(assert (= temp51644_6 (select ARGNAME_input_1_NAMEEND_DIMSIZE temp51644_5)))
(assert (= temp51644_7 #x0000000000000001))
(assert (= temp51644_8 (select ARGNAME_input_1_NAMEEND_DIMSIZE temp51644_7)))
(assert (= temp51644_9 #x0000000000000002))
(assert (= temp51644_10 (select ARGNAME_input_1_NAMEEND_DIMSIZE temp51644_9)))
(assert (= temp51644_11 #x0000000000000003))
(assert (= temp51644_12 (select ARGNAME_input_1_NAMEEND_DIMSIZE temp51644_11)))
(assert (= temp51644_13 #x0000000000000004))
(assert (= temp51644_14 (select ARGNAME_input_1_NAMEEND_DIMSIZE temp51644_13)))
(assert (= temp51644_15 #x0000000000000005))
(assert (= temp51644_16 (select ARGNAME_input_1_NAMEEND_DIMSIZE temp51644_15)))
(assert (= temp51644_17 #x0000000000000003))
(assert (= temp51644_18 (select ARGNAME_input_1_NAMEEND_DIMSIZE temp51644_17)))
(assert (= var77799 temp51644_18))
(assert (= temp51644_19 #x0000000000000000))
(assert (= temp51644_20 (select ARGNAME_input_2_NAMEEND_DIMSIZE temp51644_19)))
(assert (= temp51644_21 #x0000000000000001))
(assert (= temp51644_22 (select ARGNAME_input_2_NAMEEND_DIMSIZE temp51644_21)))
(assert (= temp51644_23 #x0000000000000002))
(assert (= temp51644_24 (select ARGNAME_input_2_NAMEEND_DIMSIZE temp51644_23)))
(assert (= temp51644_25 #x0000000000000003))
(assert (= temp51644_26 (select ARGNAME_input_2_NAMEEND_DIMSIZE temp51644_25)))
(assert (= temp51644_27 #x0000000000000004))
(assert (= temp51644_28 (select ARGNAME_input_2_NAMEEND_DIMSIZE temp51644_27)))
(assert (= temp51644_29 #x0000000000000005))
(assert (= temp51644_30 (select ARGNAME_input_2_NAMEEND_DIMSIZE temp51644_29)))
(assert (= temp51644_31 #x0000000000000004))
(assert (= temp51644_32 (select ARGNAME_input_2_NAMEEND_DIMSIZE temp51644_31)))
(assert (= var77832 temp51644_32))
(assert (= temp51644_33 #x0000000000000004))
(assert (= temp51644_34 (select ARGNAME_input_1_NAMEEND_DIMSIZE temp51644_33)))
(assert (= var77833 temp51644_34))
(assert (= var77834 (ite (= var77832 var77833) #x0000000000000001 #x0000000000000000)))
(assert (= temp51644_35 #x0000000000000001))
(assert (= var77834 temp51644_35))
(assert (= temp51644_36 #x0000000000000001))
(assert (= var275510 temp51644_36))
(assert (= temp51644_37 #x0000000000000001))
(assert (= var275528
   (ite (bvslt var275510 temp51644_37) #x0000000000000001 #x0000000000000000)))
(assert (= temp51644_38 #x0000000000000000))
(assert (= var275528 temp51644_38))
(assert (= temp51644_40 #x0000000000000000))
(assert (= temp51644_39 temp51644_40))
(assert (= temp51644_42 #x0000000000000000))
(assert (= temp51644_41 temp51644_42))
(assert (= temp51644_43 #x0000000000000001))
(assert (= var406582 temp51644_43))
(assert (= temp51644_44 #x0000000000000001))
(assert (= var406600
   (ite (bvslt var406582 temp51644_44) #x0000000000000001 #x0000000000000000)))
(assert (= temp51644_45 #x0000000000000000))
(assert (= var406600 temp51644_45))
(assert (= temp51644_47 #x0000000000000000))
(assert (= temp51644_46 temp51644_47))
(assert (= temp51644_48 #x0000000000000001))
(assert (= var603190 temp51644_48))
(assert (= temp51644_49 #x0000000000000001))
(assert (= var603208
   (ite (bvslt var603190 temp51644_49) #x0000000000000001 #x0000000000000000)))
(assert (= temp51644_50 #x0000000000000000))
(assert (= var603208 temp51644_50))
(assert (= temp51644_52 #x0000000000000000))
(assert (= temp51644_51 temp51644_52))
(assert (= temp51644_54 #x00000000000000ff))
(assert (= temp51644_53 temp51644_54))
(assert (= temp51644_56 #x00000000000000ff))
(assert (= temp51644_55 temp51644_56))
(assert (= temp51644_58 #x00000000000000ff))
(assert (= temp51644_57 temp51644_58))
(assert (= temp51644_59 #x0000000000000000))
(assert (= var861259 temp51644_59))
(assert (= var861238 var861259))
(assert (= var795670 var861238))
(assert (= temp51644_60 #x0000000000000000))
(assert (= var795670 temp51644_60))
(assert (= temp51644_61 #x0000000000000000))
(assert (= var992331 temp51644_61))
(assert (= var992310 var992331))
(assert (= var795683 var992310))
(assert (= temp51644_62 #x0000000000000000))
(assert (= var795683 temp51644_62))
(assert (= temp51644_63 #x0000000000008000))
(assert (= var1188914 temp51644_63))
(assert (= temp51644_64 #x0000000000040000))
(assert (= var1254450 temp51644_64))
(assert (= temp51644_65 #x0000000000200000))
(assert (= var1319986 temp51644_65))
(assert (= temp51644_66 #x0000000000000001))
(assert (= var78184 temp51644_66))
(model-add temp51644_1 () (_ BitVec 64) #x0000000000000005)
(model-add temp51644_2 () (_ BitVec 64) #x0000000000000001)
(model-add var77740 () (_ BitVec 64) #x0000000000000001)
(model-del k!0)
(model-add ARGNAME_input_1_NAMEEND_DIM
           ()
           (_ BitVec 64)
           (ite k!0 #x0000000000000005 (bvnot #x0000000000000005)))

